
Gurobi 8.1.0 (linux64) logging started Wed Mar 27 12:46:33 2019

Academic license - for non-commercial use only

Gurobi Optimizer version 8.1.0 build v8.1.0rc1 (linux64)
Copyright (c) 2018, Gurobi Optimization, LLC

Read LP format model from file vi_33_20.lp
Reading time = 0.01 seconds
: 84 rows, 181 columns, 1195 nonzeros
Optimize a model with 84 rows, 181 columns and 1195 nonzeros
Variable types: 0 continuous, 181 integer (180 binary)
Coefficient statistics:
  Matrix range     [1e+00, 2e+01]
  Objective range  [1e+00, 1e+00]
  Bounds range     [1e+00, 1e+00]
  RHS range        [1e+00, 1e+00]
Found heuristic solution: objective 24.0000000
Presolve removed 21 rows and 80 columns
Presolve time: 0.03s
Presolved: 63 rows, 101 columns, 587 nonzeros
Variable types: 0 continuous, 101 integer (100 binary)

Root relaxation: objective 1.476923e+01, 83 iterations, 0.00 seconds

    Nodes    |    Current Node    |     Objective Bounds      |     Work
 Expl Unexpl |  Obj  Depth IntInf | Incumbent    BestBd   Gap | It/Node Time

     0     0   14.76923    0   27   24.00000   14.76923  38.5%     -    0s
     0     0   16.25772    0   29   24.00000   16.25772  32.3%     -    0s
H    0     0                      21.0000000   16.25772  22.6%     -    0s
     0     0   16.26012    0   34   21.00000   16.26012  22.6%     -    0s
     0     0   16.26012    0   34   21.00000   16.26012  22.6%     -    0s
     0     0   17.00000    0   32   21.00000   17.00000  19.0%     -    0s
H    0     0                      20.0000000   17.00000  15.0%     -    0s
     0     0   17.40198    0   35   20.00000   17.40198  13.0%     -    0s
     0     0   17.75000    0   36   20.00000   17.75000  11.2%     -    0s
     0     0   17.75000    0   37   20.00000   17.75000  11.2%     -    0s
     0     0   18.17647    0   21   20.00000   18.17647  9.12%     -    0s
     0     0   18.17647    0   19   20.00000   18.17647  9.12%     -    0s
     0     0   18.20000    0   24   20.00000   18.20000  9.00%     -    0s

Cutting planes:
  Cover: 1
  Implied bound: 1
  Clique: 10
  StrongCG: 2
  GUB cover: 4
  Zero half: 2

Explored 1 nodes (405 simplex iterations) in 0.21 seconds
Thread count was 4 (of 4 available processors)

Solution count 3: 20 21 24 

Optimal solution found (tolerance 1.00e-04)
Best objective 2.000000000000e+01, best bound 2.000000000000e+01, gap 0.0000%

Gurobi 8.1.0 (linux64) logging started Mon Apr  8 02:19:28 2019

Academic license - for non-commercial use only

Gurobi Optimizer version 8.1.0 build v8.1.0rc1 (linux64)
Copyright (c) 2018, Gurobi Optimization, LLC

Read LP format model from file vi_33_20_machine_original.lp
Reading time = 0.00 seconds
: 169 rows, 250 columns, 700 nonzeros
Optimize a model with 169 rows, 250 columns and 700 nonzeros
Variable types: 0 continuous, 250 integer (249 binary)
Coefficient statistics:
  Matrix range     [1e+00, 2e+01]
  Objective range  [1e+00, 1e+00]
  Bounds range     [1e+00, 2e+01]
  RHS range        [1e+00, 1e+00]
Presolve removed 128 rows and 203 columns
Presolve time: 0.01s

Explored 0 nodes (0 simplex iterations) in 0.01 seconds
Thread count was 1 (of 4 available processors)

Solution count 0

Model is infeasible
Best objective -, best bound -, gap -

Gurobi 8.1.0 (linux64) logging started Mon Apr  8 02:23:36 2019

Academic license - for non-commercial use only

Gurobi Optimizer version 8.1.0 build v8.1.0rc1 (linux64)
Copyright (c) 2018, Gurobi Optimization, LLC

Read LP format model from file vi_33_20_machine_original.lp
Reading time = 0.00 seconds
: 169 rows, 250 columns, 700 nonzeros
Optimize a model with 169 rows, 250 columns and 700 nonzeros
Variable types: 0 continuous, 250 integer (249 binary)
Coefficient statistics:
  Matrix range     [1e+00, 2e+01]
  Objective range  [1e+00, 1e+00]
  Bounds range     [1e+00, 2e+01]
  RHS range        [1e+00, 1e+00]
Presolve removed 83 rows and 127 columns
Presolve time: 0.01s

Explored 0 nodes (0 simplex iterations) in 0.02 seconds
Thread count was 1 (of 4 available processors)

Solution count 0

Model is infeasible
Best objective -, best bound -, gap -

Gurobi 8.1.0 (linux64) logging started Mon Apr  8 02:23:54 2019

Academic license - for non-commercial use only

Gurobi Optimizer version 8.1.0 build v8.1.0rc1 (linux64)
Copyright (c) 2018, Gurobi Optimization, LLC

Read LP format model from file vi_33_20_machine_original.lp
Reading time = 0.00 seconds
: 169 rows, 250 columns, 700 nonzeros
Optimize a model with 169 rows, 250 columns and 700 nonzeros
Variable types: 0 continuous, 250 integer (249 binary)
Coefficient statistics:
  Matrix range     [1e+00, 2e+01]
  Objective range  [1e+00, 1e+00]
  Bounds range     [1e+00, 2e+01]
  RHS range        [1e+00, 1e+00]
Presolve removed 122 rows and 179 columns
Presolve time: 0.01s
Presolved: 47 rows, 71 columns, 226 nonzeros
Variable types: 0 continuous, 71 integer (70 binary)
Found heuristic solution: objective 20.0000000

Root relaxation: infeasible, 28 iterations, 0.00 seconds

    Nodes    |    Current Node    |     Objective Bounds      |     Work
 Expl Unexpl |  Obj  Depth IntInf | Incumbent    BestBd   Gap | It/Node Time

     0     0 infeasible    0        20.00000   20.00000  0.00%     -    0s

Explored 0 nodes (28 simplex iterations) in 0.04 seconds
Thread count was 4 (of 4 available processors)

Solution count 1: 20 

Optimal solution found (tolerance 1.00e-04)
Best objective 2.000000000000e+01, best bound 2.000000000000e+01, gap 0.0000%

Gurobi 8.1.0 (linux64) logging started Mon Apr  8 02:27:38 2019

Academic license - for non-commercial use only

Gurobi Optimizer version 8.1.0 build v8.1.0rc1 (linux64)
Copyright (c) 2018, Gurobi Optimization, LLC

Read LP format model from file vi_33_20_machine_original.lp
Reading time = 0.00 seconds
: 169 rows, 250 columns, 700 nonzeros
Optimize a model with 169 rows, 250 columns and 700 nonzeros
Variable types: 0 continuous, 250 integer (249 binary)
Coefficient statistics:
  Matrix range     [1e+00, 2e+01]
  Objective range  [1e+00, 1e+00]
  Bounds range     [1e+00, 2e+01]
  RHS range        [1e+00, 1e+00]
Presolve removed 122 rows and 179 columns
Presolve time: 0.01s
Presolved: 47 rows, 71 columns, 226 nonzeros
Variable types: 0 continuous, 71 integer (70 binary)
Found heuristic solution: objective 20.0000000

Root relaxation: infeasible, 28 iterations, 0.00 seconds

    Nodes    |    Current Node    |     Objective Bounds      |     Work
 Expl Unexpl |  Obj  Depth IntInf | Incumbent    BestBd   Gap | It/Node Time

     0     0 infeasible    0        20.00000   20.00000  0.00%     -    0s

Explored 0 nodes (28 simplex iterations) in 0.03 seconds
Thread count was 4 (of 4 available processors)

Solution count 1: 20 

Optimal solution found (tolerance 1.00e-04)
Best objective 2.000000000000e+01, best bound 2.000000000000e+01, gap 0.0000%

Gurobi 8.1.0 (linux64) logging started Thu Apr 25 20:26:32 2019

Academic license - for non-commercial use only

Gurobi Optimizer version 8.1.0 build v8.1.0rc1 (linux64)
Copyright (c) 2018, Gurobi Optimization, LLC

Read LP format model from file vi_33_20_fenchel.lp
Reading time = 0.01 seconds
: 23 rows, 12 columns, 91 nonzeros
Optimize a model with 23 rows, 12 columns and 91 nonzeros
Coefficient statistics:
  Matrix range     [1e+00, 1e+00]
  Objective range  [8e-02, 5e-01]
  Bounds range     [1e+00, 1e+00]
  RHS range        [1e+00, 1e+00]
Presolve removed 23 rows and 12 columns
Presolve time: 0.01s
Presolve: All rows and columns removed
Iteration    Objective       Primal Inf.    Dual Inf.      Time
       0    0.0000000e+00   0.000000e+00   0.000000e+00      0s

Solved in 0 iterations and 0.01 seconds
Optimal objective  0.000000000e+00

Gurobi 8.1.0 (linux64) logging started Thu Apr 25 20:28:35 2019

Academic license - for non-commercial use only

Gurobi Optimizer version 8.1.0 build v8.1.0rc1 (linux64)
Copyright (c) 2018, Gurobi Optimization, LLC

Read LP format model from file vi_33_20_fenchel.lp
Reading time = 0.01 seconds
: 23 rows, 12 columns, 91 nonzeros
Optimize a model with 23 rows, 12 columns and 91 nonzeros
Coefficient statistics:
  Matrix range     [1e+00, 1e+00]
  Objective range  [8e-02, 5e-01]
  Bounds range     [1e+00, 1e+00]
  RHS range        [1e+00, 1e+00]
Presolve removed 23 rows and 12 columns
Presolve time: 0.01s
Presolve: All rows and columns removed
Iteration    Objective       Primal Inf.    Dual Inf.      Time
       0    0.0000000e+00   0.000000e+00   0.000000e+00      0s

Solved in 0 iterations and 0.01 seconds
Optimal objective  0.000000000e+00

Gurobi 8.1.0 (linux64) logging started Thu Apr 25 20:28:42 2019

Academic license - for non-commercial use only

Gurobi Optimizer version 8.1.0 build v8.1.0rc1 (linux64)
Copyright (c) 2018, Gurobi Optimization, LLC

Read LP format model from file vi_33_20_fenchel.lp
Reading time = 0.00 seconds
: 23 rows, 12 columns, 91 nonzeros
Optimize a model with 23 rows, 12 columns and 91 nonzeros
Coefficient statistics:
  Matrix range     [1e+00, 1e+00]
  Objective range  [8e-02, 5e-01]
  Bounds range     [1e+00, 1e+00]
  RHS range        [1e+00, 1e+00]
Presolve time: 0.02s
Presolved: 23 rows, 12 columns, 91 nonzeros

Iteration    Objective       Primal Inf.    Dual Inf.      Time
       0   -1.8971774e+00   2.200000e+01   0.000000e+00      0s
       9   -1.0000000e+00   0.000000e+00   0.000000e+00      0s

Solved in 9 iterations and 0.02 seconds
Optimal objective -1.000000000e+00

Gurobi 8.1.0 (linux64) logging started Thu Apr 25 21:27:56 2019

Academic license - for non-commercial use only

Gurobi Optimizer version 8.1.0 build v8.1.0rc1 (linux64)
Copyright (c) 2018, Gurobi Optimization, LLC

Read LP format model from file vi_33_20_fenchel.lp
Reading time = 0.11 seconds
: 23 rows, 12 columns, 91 nonzeros
Optimize a model with 23 rows, 12 columns and 91 nonzeros
Coefficient statistics:
  Matrix range     [1e+00, 1e+00]
  Objective range  [8e-02, 5e-01]
  Bounds range     [1e+00, 1e+00]
  RHS range        [1e+00, 1e+00]
Presolve time: 0.07s
Presolved: 23 rows, 12 columns, 91 nonzeros

Iteration    Objective       Primal Inf.    Dual Inf.      Time
       0   -1.8971774e+00   2.200000e+01   0.000000e+00      0s
       9   -1.0000000e+00   0.000000e+00   0.000000e+00      0s

Solved in 9 iterations and 0.19 seconds
Optimal objective -1.000000000e+00

Gurobi 8.1.0 (linux64) logging started Thu Apr 25 21:28:15 2019

Academic license - for non-commercial use only

Gurobi Optimizer version 8.1.0 build v8.1.0rc1 (linux64)
Copyright (c) 2018, Gurobi Optimization, LLC

Read LP format model from file vi_33_20_fenchel.lp
Reading time = 0.00 seconds
: 23 rows, 12 columns, 91 nonzeros
Optimize a model with 23 rows, 12 columns and 91 nonzeros
Coefficient statistics:
  Matrix range     [1e+00, 1e+00]
  Objective range  [8e-02, 1e+100]
  Bounds range     [1e+00, 1e+00]
  RHS range        [1e+00, 1e+00]
Warning: Model contains large objective coefficients
         Consider reformulating model or setting NumericFocus parameter
         to avoid numerical issues.
Presolve removed 3 rows and 4 columns
Presolve time: 0.01s
Presolved: 20 rows, 8 columns, 63 nonzeros

Iteration    Objective       Primal Inf.    Dual Inf.      Time
       0   -2.0000000e+100   1.200000e+01   0.000000e+00      0s
       3   -2.0000000e+100   0.000000e+00   0.000000e+00      0s

Solved in 3 iterations and 0.02 seconds
Optimal objective -2.000000000e+100

Gurobi 8.1.0 (linux64) logging started Thu Apr 25 21:30:08 2019

Academic license - for non-commercial use only

Gurobi Optimizer version 8.1.0 build v8.1.0rc1 (linux64)
Copyright (c) 2018, Gurobi Optimization, LLC

Read LP format model from file vi_33_20_fenchel.lp
Reading time = 0.09 seconds
: 23 rows, 12 columns, 91 nonzeros
Optimize a model with 23 rows, 12 columns and 91 nonzeros
Coefficient statistics:
  Matrix range     [1e+00, 1e+00]
  Objective range  [8e-02, 1e+100]
  Bounds range     [1e+00, 1e+00]
  RHS range        [1e+00, 1e+00]
Warning: Model contains large objective coefficients
         Consider reformulating model or setting NumericFocus parameter
         to avoid numerical issues.
Presolve removed 3 rows and 4 columns
Presolve time: 0.09s
Presolved: 20 rows, 8 columns, 63 nonzeros

Iteration    Objective       Primal Inf.    Dual Inf.      Time
       0   -2.0000000e+100   1.200000e+01   0.000000e+00      0s
       3   -2.0000000e+100   0.000000e+00   0.000000e+00      0s

Solved in 3 iterations and 0.14 seconds
Optimal objective -2.000000000e+100
